Version identifier: 22.1.1.0 | 2022-11-28 | 9160aff4d
CPXPARAM_ClockType                               1
CPXPARAM_Read_DataCheck                          1
CPXPARAM_Threads                                 1
CPXPARAM_TimeLimit                               7200
CPXPARAM_MIP_Tolerances_AbsMIPGap                0
CPXPARAM_MIP_Tolerances_MIPGap                   0
CPXPARAM_MIP_Tolerances_Integrality              0
Found incumbent of value 0.000000 after 0.59 sec. (243.28 ticks)
Tried aggregator 2 times.
Aggregator has done 14846 substitutions...
MIP Presolve eliminated 1431504 rows and 697 columns.
MIP Presolve modified 260401 coefficients.
Aggregator did 14846 substitutions.
Reduced MIP has 2166094 rows, 73539 columns, and 8982271 nonzeros.
Reduced MIP has 73539 binaries, 0 generals, 0 SOSs, and 0 indicators.
Presolve time = 287.60 sec. (124553.14 ticks)
Probing time = 0.35 sec. (28.47 ticks)
Tried aggregator 1 time.
Presolve has eliminated 0 rows and 0 columns...
Detecting symmetries...
Reduced MIP has 2166094 rows, 73539 columns, and 8982271 nonzeros.
Reduced MIP has 73539 binaries, 0 generals, 0 SOSs, and 0 indicators.
Presolve time = 48.55 sec. (13238.33 ticks)
Probing time = 0.34 sec. (28.47 ticks)
Clique table members: 2151067.
MIP emphasis: balance optimality and feasibility.
MIP search method: dynamic search.
Parallel mode: none, using 1 thread.
